c Output_time 26.03.2020 18:15:09_+0100 1585242909324694026
c ** Program information **
c program_name                          "QBRG_debug"
c version                               "0.3.20"
c date                                  "25.3.2020"
c gid_id                                "673970833836058123f633335630c185360d632e"
c author                                "Oliver Kullmann"
c url                                   "https://github.com/OKullmann/oklibrary/blob/master/Satisfiability/Transformers/Generators/Random/QBRG.cpp"
c ** Machine information **
c machine_name                          "chyna-Lenovo-G50-70"
c bogomips                              3791.08
c ** Compilation information **
c compiler_version                      "g++ 7.5.0"
c compilation_date                      "Mar_26_2020 11:16:30"
c compilation_options                   "--std=c++17 -pedantic -fmax-errors=5 -Wall -Wextra -g -D_GLIBCXX_DEBUG"
c NDEBUG                                0
c OPTIMIZE                              0
c ** Parameters **
c command-line                          "./QBRG_debug" "a40 e40 a40 40" "95*1,1|2-2,1|3-3,1|4-4,1" "" "1,t" ""
c output                                "QuBlRaGe_160_95_1585242909324530541.qdimacs"
c options                               "filtered,renamed"
c num_quantifier_blocks                 4
c  quantifier_blocks                    1:a1-40 2:e41-80 3:a81-120 4:e121-160
c num_clause-blocks                     1
c  clause-blocks                        95 * {1-40,1,1/2} | {41-80,1,1/2} | {81-120,1,1/2} | {121-160,1,1/2}
c num_e-seeds                           37+2=39
c  e-seeds                              1 0 1 0 5 160 2 40 0 40 1 40 0 40 1 95 4 1 1 1 1 2 2 2 1 1 2 3 3 1 1 2 4 4 1 1 2 1 1585242909324530074
p cnf 142 95
a 1 2 3 4 5 6 7 8 9 10 11 12 13 14 15 16 17 18 19 20 21 22 23 24 25 26 27 28 29 30 31 32 33 34 35 36 37 0
e 38 39 40 41 42 43 44 45 46 47 48 49 50 51 52 53 54 55 56 57 58 59 60 61 62 63 64 65 66 67 68 69 70 71 0
a 72 73 74 75 76 77 78 79 80 81 82 83 84 85 86 87 88 89 90 91 92 93 94 95 96 97 98 99 100 101 102 103 104 105 106 107 108 0
e 109 110 111 112 113 114 115 116 117 118 119 120 121 122 123 124 125 126 127 128 129 130 131 132 133 134 135 136 137 138 139 140 141 142 0
32 68 -74 -109 0
32 -38 -84 -109 0
-22 39 85 -109 0
27 -49 89 -109 0
28 -67 -102 -109 0
-34 -38 84 109 0
34 -43 -73 -110 0
33 69 87 111 0
37 56 86 -112 0
9 -44 -84 112 0
1 39 -80 -113 0
4 56 -90 -113 0
20 -58 -105 -113 0
27 44 -108 -113 0
35 -68 87 113 0
-17 65 103 113 0
-16 54 89 -114 0
-11 46 -102 -114 0
37 -49 -82 -115 0
-23 -70 -99 -115 0
6 -71 -101 -115 0
22 -65 -88 -116 0
-6 -40 93 -116 0
26 -41 -72 -117 0
10 59 78 -117 0
29 57 98 -117 0
28 -69 -95 117 0
-37 55 105 -118 0
5 44 84 118 0
27 56 -104 118 0
-24 46 -79 -119 0
18 69 94 -119 0
32 -70 -77 119 0
33 60 94 119 0
-34 52 -100 119 0
-8 52 -76 -120 0
-23 57 -89 -120 0
-4 45 73 120 0
10 61 83 -121 0
30 -50 86 121 0
3 53 73 122 0
-27 -57 82 122 0
30 65 -79 -123 0
-18 52 90 -123 0
-4 -58 -72 -124 0
21 -38 -75 -124 0
20 54 -79 124 0
24 -60 89 -125 0
29 46 -82 -126 0
-17 -55 75 126 0
-15 -38 -83 126 0
-24 58 97 126 0
25 52 -99 126 0
29 -57 -74 127 0
26 38 97 127 0
36 62 77 -128 0
-35 65 -81 -128 0
35 -39 77 -129 0
28 -43 -85 -129 0
7 -58 -96 130 0
-20 -67 -108 130 0
30 -43 80 -131 0
22 -61 104 -131 0
17 -47 88 132 0
6 63 -105 -133 0
-10 66 -95 133 0
-22 -61 -107 133 0
-20 64 -107 134 0
23 69 -108 134 0
-16 42 -92 -135 0
8 -49 107 135 0
-34 -71 -108 135 0
-37 47 77 -136 0
-11 -65 -72 136 0
-23 68 93 136 0
-5 46 97 -137 0
-21 48 106 -137 0
-22 -40 -108 -137 0
15 55 91 137 0
-2 -67 78 -138 0
-2 -49 -104 -138 0
-35 -44 -81 138 0
3 -45 83 -139 0
-32 -47 104 -139 0
7 -57 -89 139 0
-4 61 -90 140 0
14 -62 -93 -141 0
-19 -62 78 141 0
27 55 -79 141 0
13 57 -99 141 0
-28 -51 -77 -142 0
31 -50 82 142 0
-20 46 87 142 0
-28 -66 107 142 0
-12 -58 108 142 0
